min: c;

c = 3.1026612220287 * u1_t7_h4 + 3.09868422918283 * u1_t7_h5 + 4.18267188465264 * u1_t5_h6 + 4.18267188465264 * u1_t7_h6 + 3.86111393247601 * u1_t5_h7 + 3.86111393247601 * u1_t7_h7 + 3.86111393247601 * u1_t9_h7 + 5.87052962457776 * u1_t5_h8 + 5.87052962457776 * u1_t7_h8 + 5.87052962457776 * u1_t9_h8 + 5.87052962457776 * u1_t10_h8 + 5.235809433592 * u1_t5_h9 + 5.235809433592 * u1_t7_h9 + 5.235809433592 * u1_t9_h9 + 5.235809433592 * u1_t10_h9 + 4.97907989525322 * u1_t5_h10 + 4.97907989525322 * u1_t7_h10 + 4.97907989525322 * u1_t9_h10 + 4.97907989525322 * u1_t10_h10 + 3.57248701016747 * u1_t5_h11 + 3.57248701016747 * u1_t9_h11 + 3.57248701016747 * u1_t10_h11 + 6.24284017313311 * u1_t4_h12 + 6.24284017313311 * u1_t5_h12 + 6.24284017313311 * u1_t8_h12 + 6.24284017313311 * u1_t9_h12 + 6.24284017313311 * u1_t10_h12 + 4.76998315800131 * u1_t4_h13 + 4.76998315800131 * u1_t8_h13 + 4.76998315800131 * u1_t9_h13 + 4.76998315800131 * u1_t10_h13 + 5.43005441598648 * u1_t4_h14 + 5.43005441598648 * u1_t8_h14 + 5.43005441598648 * u1_t9_h14 + 5.43005441598648 * u1_t10_h14 + 5.81205479319756 * u1_t4_h15 + 5.81205479319756 * u1_t8_h15 + 6.13515314939848 * u1_t4_h16 + 6.13515314939848 * u1_t8_h16 + 5.97549873003446 * u1_t4_h17 + 5.97549873003446 * u1_t8_h17 + 6.02633092504768 * u1_t2_h18 + 6.02633092504768 * u1_t4_h18 + 6.02633092504768 * u1_t6_h18 + 6.02633092504768 * u1_t8_h18 + 6.00557955644299 * u1_t2_h19 + 6.00557955644299 * u1_t3_h19 + 6.00557955644299 * u1_t4_h19 + 6.00557955644299 * u1_t6_h19 + 5.11340272976789 * u1_t1_h20 + 5.11340272976789 * u1_t2_h20 + 5.11340272976789 * u1_t3_h20 + 5.11340272976789 * u1_t4_h20 + 5.11340272976789 * u1_t6_h20 + 5.23624795043844 * u1_t1_h21 + 5.23624795043844 * u1_t2_h21 + 5.23624795043844 * u1_t3_h21 + 6.05538163467397 * u1_t1_h22 + 6.05538163467397 * u1_t2_h22 + 5.92183833222785 * u1_t1_h23 + 5.92183833222785 * u1_t2_h23;
0 <= u1_t1_h20 <= 1;
0 <= u1_t1_h21 <= 1;
0 <= u1_t1_h22 <= 1;
0 <= u1_t1_h23 <= 1;
u1_t1_h20 + u1_t1_h21 + u1_t1_h22 + u1_t1_h23 = 1;
0 <= u1_t2_h18 <= 1;
0 <= u1_t2_h19 <= 1;
0 <= u1_t2_h20 <= 1;
0 <= u1_t2_h21 <= 1;
0 <= u1_t2_h22 <= 1;
0 <= u1_t2_h23 <= 1;
u1_t2_h18 + u1_t2_h19 + u1_t2_h20 + u1_t2_h21 + u1_t2_h22 + u1_t2_h23 = 2;
0 <= u1_t3_h19 <= 1;
0 <= u1_t3_h20 <= 1;
0 <= u1_t3_h21 <= 1;
u1_t3_h19 + u1_t3_h20 + u1_t3_h21 = 1;
0 <= u1_t4_h12 <= 1;
0 <= u1_t4_h13 <= 1;
0 <= u1_t4_h14 <= 1;
0 <= u1_t4_h15 <= 1;
0 <= u1_t4_h16 <= 1;
0 <= u1_t4_h17 <= 1;
0 <= u1_t4_h18 <= 1;
0 <= u1_t4_h19 <= 1;
0 <= u1_t4_h20 <= 1;
u1_t4_h12 + u1_t4_h13 + u1_t4_h14 + u1_t4_h15 + u1_t4_h16 + u1_t4_h17 + u1_t4_h18 + u1_t4_h19 + u1_t4_h20 = 3;
0 <= u1_t5_h6 <= 1;
0 <= u1_t5_h7 <= 1;
0 <= u1_t5_h8 <= 1;
0 <= u1_t5_h9 <= 1;
0 <= u1_t5_h10 <= 1;
0 <= u1_t5_h11 <= 1;
0 <= u1_t5_h12 <= 1;
u1_t5_h6 + u1_t5_h7 + u1_t5_h8 + u1_t5_h9 + u1_t5_h10 + u1_t5_h11 + u1_t5_h12 = 3;
0 <= u1_t6_h18 <= 1;
0 <= u1_t6_h19 <= 1;
0 <= u1_t6_h20 <= 1;
u1_t6_h18 + u1_t6_h19 + u1_t6_h20 = 2;
0 <= u1_t7_h4 <= 1;
0 <= u1_t7_h5 <= 1;
0 <= u1_t7_h6 <= 1;
0 <= u1_t7_h7 <= 1;
0 <= u1_t7_h8 <= 1;
0 <= u1_t7_h9 <= 1;
0 <= u1_t7_h10 <= 1;
u1_t7_h4 + u1_t7_h5 + u1_t7_h6 + u1_t7_h7 + u1_t7_h8 + u1_t7_h9 + u1_t7_h10 = 2;
0 <= u1_t8_h12 <= 1;
0 <= u1_t8_h13 <= 1;
0 <= u1_t8_h14 <= 1;
0 <= u1_t8_h15 <= 1;
0 <= u1_t8_h16 <= 1;
0 <= u1_t8_h17 <= 1;
0 <= u1_t8_h18 <= 1;
u1_t8_h12 + u1_t8_h13 + u1_t8_h14 + u1_t8_h15 + u1_t8_h16 + u1_t8_h17 + u1_t8_h18 = 2;
0 <= u1_t9_h7 <= 1;
0 <= u1_t9_h8 <= 1;
0 <= u1_t9_h9 <= 1;
0 <= u1_t9_h10 <= 1;
0 <= u1_t9_h11 <= 1;
0 <= u1_t9_h12 <= 1;
0 <= u1_t9_h13 <= 1;
0 <= u1_t9_h14 <= 1;
u1_t9_h7 + u1_t9_h8 + u1_t9_h9 + u1_t9_h10 + u1_t9_h11 + u1_t9_h12 + u1_t9_h13 + u1_t9_h14 = 3;
0 <= u1_t10_h8 <= 1;
0 <= u1_t10_h9 <= 1;
0 <= u1_t10_h10 <= 1;
0 <= u1_t10_h11 <= 1;
0 <= u1_t10_h12 <= 1;
0 <= u1_t10_h13 <= 1;
0 <= u1_t10_h14 <= 1;
u1_t10_h8 + u1_t10_h9 + u1_t10_h10 + u1_t10_h11 + u1_t10_h12 + u1_t10_h13 + u1_t10_h14 = 3;
